c "455808.clq"
p edge 202 2976
e 1 17
e 1 18
e 1 19
e 1 20
e 1 21
e 1 22
e 1 23
e 1 24
e 1 26
e 1 27
e 1 28
e 1 30
e 1 33
e 1 40
e 1 41
e 1 43
e 1 44
e 1 46
e 1 58
e 1 60
e 1 61
e 1 67
e 1 72
e 1 73
e 1 77
e 1 84
e 1 94
e 1 103
e 1 113
e 1 151
e 1 159
e 1 169
e 1 171
e 1 174
e 1 177
e 1 182
e 2 17
e 2 18
e 2 19
e 2 21
e 2 22
e 2 23
e 2 25
e 2 26
e 2 27
e 2 28
e 2 35
e 2 38
e 2 40
e 2 44
e 2 46
e 2 47
e 2 53
e 2 59
e 2 61
e 2 62
e 2 68
e 2 79
e 2 91
e 2 106
e 2 108
e 2 110
e 2 113
e 2 125
e 2 129
e 2 132
e 2 139
e 2 141
e 2 144
e 2 179
e 3 17
e 3 18
e 3 19
e 3 21
e 3 22
e 3 24
e 3 25
e 3 26
e 3 28
e 3 29
e 3 32
e 3 36
e 3 39
e 3 44
e 3 45
e 3 49
e 3 52
e 3 57
e 3 59
e 3 70
e 3 76
e 3 79
e 3 81
e 3 82
e 3 87
e 3 88
e 3 89
e 3 100
e 3 119
e 3 120
e 3 124
e 3 142
e 3 152
e 3 153
e 3 188
e 3 199
e 4 17
e 4 18
e 4 19
e 4 20
e 4 21
e 4 23
e 4 24
e 4 26
e 4 30
e 4 34
e 4 39
e 4 53
e 4 54
e 4 61
e 4 63
e 4 65
e 4 69
e 4 71
e 4 76
e 4 82
e 4 83
e 4 86
e 4 92
e 4 101
e 4 103
e 4 111
e 4 115
e 4 138
e 4 140
e 4 146
e 4 149
e 4 150
e 4 153
e 4 154
e 4 159
e 4 161
e 4 171
e 4 178
e 4 179
e 4 182
e 4 183
e 4 189
e 4 194
e 4 198
e 5 17
e 5 18
e 5 19
e 5 20
e 5 21
e 5 22
e 5 23
e 5 24
e 5 25
e 5 26
e 5 27
e 5 28
e 5 29
e 5 30
e 5 31
e 5 32
e 5 33
e 5 34
e 5 41
e 5 42
e 5 43
e 5 44
e 5 48
e 5 49
e 5 52
e 5 53
e 5 57
e 5 58
e 5 66
e 5 71
e 5 77
e 5 80
e 5 81
e 5 84
e 5 86
e 5 102
e 5 104
e 5 107
e 5 110
e 5 119
e 5 131
e 5 132
e 5 133
e 5 138
e 5 145
e 5 149
e 5 167
e 5 168
e 5 178
e 5 182
e 5 185
e 5 191
e 5 193
e 6 17
e 6 18
e 6 19
e 6 20
e 6 21
e 6 22
e 6 25
e 6 26
e 6 27
e 6 30
e 6 33
e 6 35
e 6 37
e 6 43
e 6 47
e 6 51
e 6 54
e 6 56
e 6 58
e 6 60
e 6 61
e 6 66
e 6 72
e 6 75
e 6 76
e 6 80
e 6 82
e 6 93
e 6 101
e 6 104
e 6 111
e 6 113
e 6 130
e 6 140
e 6 144
e 6 150
e 6 155
e 6 156
e 6 160
e 6 171
e 6 175
e 6 197
e 7 17
e 7 22
e 7 28
e 7 64
e 7 70
e 7 85
e 7 98
e 7 174
e 7 187
e 8 17
e 8 18
e 8 19
e 8 20
e 8 21
e 8 22
e 8 23
e 8 24
e 8 29
e 8 30
e 8 32
e 8 33
e 8 35
e 8 37
e 8 39
e 8 40
e 8 42
e 8 45
e 8 55
e 8 58
e 8 59
e 8 66
e 8 85
e 8 93
e 8 100
e 8 102
e 8 103
e 8 119
e 8 134
e 8 158
e 8 167
e 8 168
e 8 187
e 9 17
e 9 18
e 9 19
e 9 20
e 9 22
e 9 25
e 9 26
e 9 27
e 9 28
e 9 29
e 9 36
e 9 37
e 9 41
e 9 44
e 9 47
e 9 48
e 9 51
e 9 54
e 9 64
e 9 72
e 9 81
e 9 89
e 9 99
e 9 102
e 9 114
e 9 117
e 9 118
e 9 122
e 9 154
e 9 169
e 9 175
e 9 193
e 9 194
e 10 17
e 10 18
e 10 20
e 10 21
e 10 23
e 10 24
e 10 28
e 10 31
e 10 32
e 10 33
e 10 34
e 10 41
e 10 43
e 10 46
e 10 52
e 10 73
e 10 80
e 10 84
e 10 100
e 10 104
e 10 116
e 10 125
e 10 128
e 10 146
e 10 148
e 10 149
e 10 152
e 10 156
e 10 174
e 10 182
e 10 185
e 11 17
e 11 18
e 11 19
e 11 20
e 11 21
e 11 22
e 11 23
e 11 24
e 11 28
e 11 29
e 11 31
e 11 32
e 11 33
e 11 34
e 11 36
e 11 40
e 11 41
e 11 44
e 11 48
e 11 52
e 11 54
e 11 57
e 11 60
e 11 62
e 11 63
e 11 65
e 11 67
e 11 69
e 11 70
e 11 71
e 11 72
e 11 73
e 11 74
e 11 83
e 11 86
e 11 88
e 11 89
e 11 90
e 11 96
e 11 99
e 11 101
e 11 109
e 11 110
e 11 111
e 11 113
e 11 119
e 11 127
e 11 136
e 11 142
e 11 155
e 11 165
e 11 173
e 11 174
e 11 175
e 11 179
e 11 189
e 11 190
e 11 193
e 11 194
e 11 195
e 11 199
e 12 17
e 12 18
e 12 19
e 12 20
e 12 22
e 12 23
e 12 26
e 12 27
e 12 30
e 12 31
e 12 33
e 12 37
e 12 48
e 12 49
e 12 52
e 12 53
e 12 59
e 12 61
e 12 63
e 12 65
e 12 66
e 12 77
e 12 88
e 12 97
e 12 116
e 12 118
e 12 120
e 12 121
e 12 129
e 12 137
e 12 148
e 12 161
e 12 168
e 12 173
e 13 17
e 13 18
e 13 19
e 13 20
e 13 24
e 13 25
e 13 26
e 13 31
e 13 34
e 13 41
e 13 42
e 13 46
e 13 54
e 13 62
e 13 69
e 13 72
e 13 105
e 13 118
e 13 129
e 13 133
e 13 138
e 13 139
e 13 148
e 13 158
e 13 165
e 13 195
e 13 198
e 14 17
e 14 18
e 14 19
e 14 20
e 14 21
e 14 23
e 14 24
e 14 25
e 14 32
e 14 36
e 14 38
e 14 39
e 14 41
e 14 46
e 14 48
e 14 49
e 14 51
e 14 54
e 14 57
e 14 64
e 14 85
e 14 92
e 14 98
e 14 105
e 14 106
e 14 107
e 14 111
e 14 116
e 14 122
e 14 125
e 14 132
e 14 134
e 14 145
e 14 146
e 14 152
e 14 178
e 14 179
e 14 182
e 14 186
e 14 192
e 15 17
e 15 18
e 15 19
e 15 20
e 15 21
e 15 22
e 15 32
e 15 33
e 15 35
e 15 43
e 15 44
e 15 51
e 15 53
e 15 54
e 15 56
e 15 63
e 15 64
e 15 73
e 15 74
e 15 83
e 15 98
e 15 100
e 15 107
e 15 109
e 15 158
e 15 175
e 15 185
e 15 194
e 16 17
e 16 18
e 16 19
e 16 20
e 16 21
e 16 23
e 16 25
e 16 27
e 16 29
e 16 30
e 16 33
e 16 34
e 16 35
e 16 36
e 16 38
e 16 41
e 16 45
e 16 47
e 16 48
e 16 49
e 16 53
e 16 56
e 16 68
e 16 77
e 16 79
e 16 81
e 16 100
e 16 113
e 16 125
e 16 129
e 16 135
e 16 146
e 16 150
e 16 155
e 16 161
e 16 167
e 16 177
e 16 181
e 16 197
e 17 18
e 17 19
e 17 20
e 17 21
e 17 22
e 17 23
e 17 24
e 17 25
e 17 26
e 17 27
e 17 29
e 17 30
e 17 32
e 17 33
e 17 35
e 17 36
e 17 37
e 17 38
e 17 39
e 17 41
e 17 42
e 17 44
e 17 49
e 17 50
e 17 52
e 17 56
e 17 62
e 17 69
e 17 78
e 17 80
e 17 81
e 17 85
e 17 89
e 17 91
e 17 92
e 17 94
e 17 95
e 17 101
e 17 104
e 17 111
e 17 114
e 17 115
e 17 120
e 17 123
e 17 127
e 17 129
e 17 130
e 17 135
e 17 160
e 17 163
e 17 168
e 17 173
e 17 184
e 17 189
e 17 196
e 17 199
e 18 19
e 18 20
e 18 21
e 18 22
e 18 23
e 18 24
e 18 25
e 18 26
e 18 27
e 18 28
e 18 29
e 18 30
e 18 31
e 18 32
e 18 33
e 18 34
e 18 35
e 18 38
e 18 39
e 18 40
e 18 43
e 18 45
e 18 46
e 18 50
e 18 51
e 18 53
e 18 54
e 18 55
e 18 56
e 18 61
e 18 62
e 18 65
e 18 66
e 18 67
e 18 69
e 18 70
e 18 74
e 18 78
e 18 79
e 18 82
e 18 83
e 18 84
e 18 86
e 18 89
e 18 91
e 18 95
e 18 99
e 18 100
e 18 102
e 18 103
e 18 105
e 18 115
e 18 119
e 18 123
e 18 124
e 18 127
e 18 128
e 18 130
e 18 135
e 18 136
e 18 144
e 18 148
e 18 149
e 18 153
e 18 171
e 18 175
e 18 178
e 18 180
e 18 184
e 18 186
e 18 193
e 18 202
e 19 20
e 19 21
e 19 22
e 19 23
e 19 24
e 19 25
e 19 26
e 19 27
e 19 28
e 19 29
e 19 30
e 19 31
e 19 37
e 19 38
e 19 40
e 19 41
e 19 42
e 19 50
e 19 53
e 19 57
e 19 59
e 19 60
e 19 61
e 19 67
e 19 69
e 19 70
e 19 74
e 19 77
e 19 79
e 19 80
e 19 82
e 19 85
e 19 86
e 19 90
e 19 91
e 19 94
e 19 95
e 19 98
e 19 99
e 19 100
e 19 107
e 19 108
e 19 110
e 19 111
e 19 112
e 19 119
e 19 120
e 19 131
e 19 141
e 19 143
e 19 144
e 19 147
e 19 148
e 19 159
e 19 162
e 19 164
e 19 169
e 19 171
e 19 180
e 19 181
e 19 182
e 19 190
e 19 191
e 19 196
e 19 197
e 19 200
e 20 21
e 20 22
e 20 23
e 20 24
e 20 25
e 20 26
e 20 27
e 20 29
e 20 31
e 20 32
e 20 34
e 20 36
e 20 38
e 20 39
e 20 41
e 20 47
e 20 48
e 20 49
e 20 51
e 20 52
e 20 55
e 20 58
e 20 60
e 20 61
e 20 65
e 20 67
e 20 69
e 20 72
e 20 75
e 20 77
e 20 78
e 20 81
e 20 87
e 20 91
e 20 92
e 20 95
e 20 96
e 20 98
e 20 102
e 20 107
e 20 108
e 20 111
e 20 115
e 20 120
e 20 122
e 20 125
e 20 128
e 20 132
e 20 135
e 20 143
e 20 145
e 20 147
e 20 151
e 20 154
e 20 158
e 20 163
e 20 167
e 20 173
e 20 178
e 20 186
e 20 192
e 20 197
e 20 201
e 21 22
e 21 23
e 21 24
e 21 25
e 21 26
e 21 27
e 21 28
e 21 29
e 21 30
e 21 31
e 21 32
e 21 34
e 21 35
e 21 36
e 21 37
e 21 38
e 21 40
e 21 42
e 21 45
e 21 46
e 21 47
e 21 50
e 21 51
e 21 55
e 21 58
e 21 60
e 21 61
e 21 63
e 21 64
e 21 68
e 21 71
e 21 74
e 21 75
e 21 77
e 21 84
e 21 86
e 21 90
e 21 91
e 21 92
e 21 93
e 21 95
e 21 102
e 21 109
e 21 110
e 21 113
e 21 114
e 21 115
e 21 122
e 21 125
e 21 133
e 21 134
e 21 137
e 21 143
e 21 147
e 21 148
e 21 153
e 21 154
e 21 157
e 21 158
e 21 186
e 21 189
e 21 191
e 21 202
e 22 23
e 22 24
e 22 25
e 22 27
e 22 28
e 22 29
e 22 30
e 22 36
e 22 38
e 22 40
e 22 42
e 22 44
e 22 49
e 22 50
e 22 56
e 22 58
e 22 61
e 22 62
e 22 64
e 22 65
e 22 69
e 22 73
e 22 77
e 22 79
e 22 82
e 22 86
e 22 87
e 22 88
e 22 92
e 22 97
e 22 100
e 22 105
e 22 108
e 22 109
e 22 111
e 22 112
e 22 122
e 22 124
e 22 129
e 22 133
e 22 137
e 22 150
e 22 156
e 22 157
e 22 160
e 22 162
e 22 164
e 22 168
e 22 169
e 22 179
e 22 199
e 23 24
e 23 25
e 23 26
e 23 27
e 23 28
e 23 29
e 23 30
e 23 31
e 23 32
e 23 33
e 23 34
e 23 35
e 23 36
e 23 37
e 23 38
e 23 41
e 23 42
e 23 43
e 23 45
e 23 46
e 23 47
e 23 48
e 23 49
e 23 50
e 23 61
e 23 65
e 23 66
e 23 69
e 23 70
e 23 71
e 23 76
e 23 78
e 23 79
e 23 88
e 23 91
e 23 101
e 23 112
e 23 116
e 23 120
e 23 124
e 23 125
e 23 130
e 23 131
e 23 132
e 23 133
e 23 138
e 23 147
e 23 150
e 23 156
e 23 163
e 23 166
e 23 167
e 23 169
e 23 170
e 23 172
e 23 173
e 23 180
e 23 183
e 23 186
e 23 187
e 23 188
e 23 192
e 23 195
e 23 200
e 24 25
e 24 28
e 24 31
e 24 32
e 24 33
e 24 34
e 24 35
e 24 36
e 24 37
e 24 39
e 24 40
e 24 42
e 24 43
e 24 44
e 24 46
e 24 49
e 24 50
e 24 51
e 24 53
e 24 55
e 24 56
e 24 57
e 24 58
e 24 60
e 24 61
e 24 62
e 24 63
e 24 65
e 24 66
e 24 68
e 24 70
e 24 72
e 24 73
e 24 76
e 24 79
e 24 83
e 24 84
e 24 85
e 24 86
e 24 88
e 24 89
e 24 91
e 24 101
e 24 108
e 24 117
e 24 118
e 24 121
e 24 124
e 24 130
e 24 131
e 24 134
e 24 136
e 24 140
e 24 142
e 24 152
e 24 154
e 24 156
e 24 160
e 24 162
e 24 166
e 24 169
e 24 188
e 24 191
e 24 196
e 24 198
e 24 201
e 25 26
e 25 27
e 25 28
e 25 29
e 25 30
e 25 31
e 25 32
e 25 34
e 25 37
e 25 38
e 25 40
e 25 41
e 25 42
e 25 44
e 25 46
e 25 47
e 25 48
e 25 50
e 25 51
e 25 52
e 25 57
e 25 60
e 25 62
e 25 63
e 25 68
e 25 69
e 25 70
e 25 71
e 25 73
e 25 75
e 25 78
e 25 80
e 25 81
e 25 83
e 25 85
e 25 88
e 25 91
e 25 97
e 25 98
e 25 100
e 25 101
e 25 102
e 25 103
e 25 118
e 25 119
e 25 123
e 25 126
e 25 128
e 25 131
e 25 136
e 25 141
e 25 146
e 25 150
e 25 152
e 25 155
e 25 156
e 25 158
e 25 163
e 25 165
e 25 166
e 25 188
e 25 192
e 25 195
e 25 196
e 25 199
e 25 202
e 26 27
e 26 29
e 26 30
e 26 31
e 26 32
e 26 34
e 26 35
e 26 36
e 26 42
e 26 43
e 26 45
e 26 47
e 26 48
e 26 49
e 26 51
e 26 52
e 26 55
e 26 59
e 26 62
e 26 70
e 26 78
e 26 80
e 26 83
e 26 86
e 26 87
e 26 91
e 26 96
e 26 103
e 26 104
e 26 106
e 26 117
e 26 139
e 26 140
e 26 141
e 26 146
e 26 147
e 26 148
e 26 150
e 26 152
e 26 154
e 26 164
e 26 186
e 26 187
e 26 190
e 27 28
e 27 30
e 27 31
e 27 35
e 27 36
e 27 38
e 27 41
e 27 43
e 27 44
e 27 45
e 27 48
e 27 51
e 27 56
e 27 58
e 27 60
e 27 64
e 27 66
e 27 71
e 27 74
e 27 75
e 27 80
e 27 82
e 27 84
e 27 88
e 27 94
e 27 96
e 27 97
e 27 99
e 27 100
e 27 111
e 27 112
e 27 115
e 27 116
e 27 125
e 27 126
e 27 127
e 27 128
e 27 129
e 27 131
e 27 134
e 27 143
e 27 144
e 27 151
e 27 152
e 27 153
e 27 162
e 27 164
e 27 170
e 27 174
e 27 178
e 27 182
e 27 186
e 27 187
e 27 198
e 28 29
e 28 35
e 28 37
e 28 39
e 28 43
e 28 45
e 28 49
e 28 52
e 28 63
e 28 69
e 28 71
e 28 74
e 28 75
e 28 76
e 28 83
e 28 85
e 28 92
e 28 97
e 28 98
e 28 101
e 28 102
e 28 106
e 28 128
e 28 130
e 28 131
e 28 138
e 28 139
e 28 147
e 28 151
e 28 201
e 29 31
e 29 33
e 29 36
e 29 37
e 29 38
e 29 40
e 29 45
e 29 46
e 29 47
e 29 50
e 29 53
e 29 57
e 29 59
e 29 71
e 29 72
e 29 73
e 29 77
e 29 103
e 29 106
e 29 109
e 29 123
e 29 134
e 29 137
e 29 142
e 29 145
e 29 148
e 29 149
e 29 155
e 29 164
e 29 176
e 30 31
e 30 33
e 30 34
e 30 35
e 30 37
e 30 38
e 30 39
e 30 40
e 30 41
e 30 44
e 30 45
e 30 46
e 30 49
e 30 51
e 30 56
e 30 57
e 30 59
e 30 63
e 30 64
e 30 66
e 30 67
e 30 72
e 30 73
e 30 80
e 30 83
e 30 84
e 30 90
e 30 97
e 30 100
e 30 102
e 30 103
e 30 105
e 30 107
e 30 112
e 30 126
e 30 127
e 30 128
e 30 134
e 30 139
e 30 156
e 30 158
e 30 159
e 30 160
e 30 166
e 30 174
e 30 188
e 30 192
e 30 193
e 30 196
e 30 198
e 30 200
e 30 202
e 31 32
e 31 33
e 31 34
e 31 35
e 31 36
e 31 37
e 31 40
e 31 42
e 31 44
e 31 45
e 31 47
e 31 59
e 31 61
e 31 62
e 31 68
e 31 71
e 31 73
e 31 74
e 31 79
e 31 82
e 31 90
e 31 93
e 31 96
e 31 99
e 31 101
e 31 102
e 31 106
e 31 109
e 31 114
e 31 115
e 31 121
e 31 123
e 31 124
e 31 127
e 31 131
e 31 135
e 31 142
e 31 153
e 31 154
e 31 161
e 31 169
e 31 174
e 31 176
e 31 182
e 31 183
e 31 193
e 31 194
e 31 202
e 32 34
e 32 35
e 32 37
e 32 39
e 32 43
e 32 44
e 32 50
e 32 52
e 32 54
e 32 55
e 32 56
e 32 59
e 32 63
e 32 65
e 32 71
e 32 74
e 32 77
e 32 84
e 32 87
e 32 96
e 32 99
e 32 110
e 32 113
e 32 136
e 32 137
e 32 138
e 32 140
e 32 146
e 32 153
e 32 154
e 32 162
e 32 164
e 32 179
e 32 182
e 32 195
e 33 37
e 33 40
e 33 46
e 33 53
e 33 58
e 33 63
e 33 66
e 33 105
e 33 113
e 33 115
e 33 123
e 33 130
e 33 132
e 33 133
e 33 134
e 33 149
e 33 150
e 33 153
e 33 160
e 33 161
e 33 165
e 33 175
e 33 184
e 33 193
e 33 199
e 34 36
e 34 39
e 34 42
e 34 48
e 34 50
e 34 54
e 34 65
e 34 67
e 34 68
e 34 76
e 34 77
e 34 78
e 34 85
e 34 86
e 34 92
e 34 97
e 34 104
e 34 111
e 34 117
e 34 121
e 34 130
e 34 144
e 34 147
e 34 149
e 34 158
e 34 166
e 34 172
e 34 175
e 34 183
e 34 187
e 34 189
e 34 190
e 34 192
e 34 199
e 34 201
e 35 38
e 35 39
e 35 40
e 35 43
e 35 47
e 35 48
e 35 52
e 35 54
e 35 58
e 35 59
e 35 60
e 35 66
e 35 68
e 35 76
e 35 89
e 35 91
e 35 94
e 35 97
e 35 102
e 35 104
e 35 105
e 35 119
e 35 125
e 35 133
e 35 150
e 35 160
e 35 162
e 35 172
e 35 176
e 35 183
e 35 188
e 35 194
e 35 195
e 36 38
e 36 39
e 36 40
e 36 43
e 36 52
e 36 55
e 36 56
e 36 60
e 36 61
e 36 63
e 36 66
e 36 72
e 36 74
e 36 85
e 36 89
e 36 93
e 36 96
e 36 98
e 36 99
e 36 106
e 36 114
e 36 115
e 36 116
e 36 118
e 36 121
e 36 123
e 36 141
e 36 144
e 36 160
e 36 161
e 36 171
e 36 172
e 36 178
e 36 179
e 36 187
e 36 197
e 36 200
e 37 39
e 37 44
e 37 47
e 37 52
e 37 54
e 37 55
e 37 57
e 37 58
e 37 65
e 37 69
e 37 73
e 37 75
e 37 78
e 37 79
e 37 80
e 37 84
e 37 86
e 37 93
e 37 98
e 37 105
e 37 116
e 37 121
e 37 122
e 37 139
e 37 154
e 37 159
e 37 178
e 37 181
e 37 187
e 37 190
e 37 201
e 38 39
e 38 42
e 38 45
e 38 48
e 38 49
e 38 57
e 38 60
e 38 64
e 38 67
e 38 69
e 38 70
e 38 71
e 38 76
e 38 78
e 38 80
e 38 84
e 38 88
e 38 90
e 38 91
e 38 96
e 38 98
e 38 101
e 38 111
e 38 113
e 38 114
e 38 115
e 38 117
e 38 124
e 38 133
e 38 136
e 38 138
e 38 155
e 38 164
e 38 172
e 38 180
e 38 193
e 38 196
e 38 199
e 38 200
e 38 202
e 39 42
e 39 43
e 39 45
e 39 46
e 39 47
e 39 48
e 39 54
e 39 55
e 39 77
e 39 87
e 39 105
e 39 106
e 39 112
e 39 122
e 39 151
e 39 156
e 39 158
e 39 176
e 39 178
e 39 186
e 39 192
e 39 195
e 40 41
e 40 46
e 40 52
e 40 55
e 40 56
e 40 59
e 40 61
e 40 63
e 40 72
e 40 83
e 40 84
e 40 86
e 40 90
e 40 96
e 40 105
e 40 107
e 40 108
e 40 109
e 40 112
e 40 116
e 40 121
e 40 123
e 40 127
e 40 135
e 40 136
e 40 143
e 40 147
e 40 152
e 40 157
e 40 161
e 40 162
e 40 165
e 40 167
e 40 173
e 40 174
e 40 188
e 40 193
e 40 194
e 40 196
e 40 201
e 41 42
e 41 43
e 41 45
e 41 51
e 41 53
e 41 55
e 41 56
e 41 60
e 41 64
e 41 66
e 41 67
e 41 68
e 41 70
e 41 74
e 41 75
e 41 76
e 41 79
e 41 81
e 41 82
e 41 83
e 41 88
e 41 89
e 41 90
e 41 94
e 41 95
e 41 96
e 41 97
e 41 98
e 41 103
e 41 111
e 41 112
e 41 115
e 41 116
e 41 134
e 41 135
e 41 142
e 41 156
e 41 164
e 41 171
e 41 175
e 41 177
e 41 181
e 41 191
e 41 194
e 41 198
e 42 51
e 42 54
e 42 64
e 42 81
e 42 84
e 42 108
e 42 116
e 42 155
e 42 167
e 42 173
e 42 187
e 42 190
e 43 51
e 43 55
e 43 56
e 43 59
e 43 85
e 43 87
e 43 98
e 43 116
e 43 119
e 43 121
e 43 134
e 43 154
e 43 155
e 43 162
e 43 164
e 43 172
e 43 182
e 43 198
e 44 45
e 44 46
e 44 47
e 44 48
e 44 50
e 44 57
e 44 58
e 44 62
e 44 72
e 44 73
e 44 74
e 44 79
e 44 88
e 44 89
e 44 93
e 44 111
e 44 113
e 44 114
e 44 124
e 44 129
e 44 132
e 44 133
e 44 138
e 44 141
e 44 147
e 44 154
e 44 157
e 44 180
e 45 47
e 45 49
e 45 50
e 45 54
e 45 58
e 45 63
e 45 64
e 45 65
e 45 75
e 45 76
e 45 83
e 45 84
e 45 87
e 45 94
e 45 96
e 45 97
e 45 102
e 45 105
e 45 109
e 45 117
e 45 124
e 45 139
e 45 156
e 45 163
e 45 168
e 45 180
e 45 183
e 45 185
e 46 50
e 46 60
e 46 62
e 46 63
e 46 68
e 46 75
e 46 76
e 46 87
e 46 93
e 46 95
e 46 108
e 46 112
e 46 117
e 46 134
e 46 137
e 46 142
e 46 157
e 46 187
e 46 189
e 47 49
e 47 50
e 47 53
e 47 54
e 47 56
e 47 57
e 47 59
e 47 64
e 47 65
e 47 68
e 47 72
e 47 73
e 47 83
e 47 85
e 47 87
e 47 91
e 47 109
e 47 110
e 47 116
e 47 118
e 47 125
e 47 129
e 47 140
e 47 144
e 47 145
e 47 149
e 47 159
e 47 161
e 47 165
e 47 181
e 47 191
e 48 58
e 48 71
e 48 94
e 48 99
e 48 107
e 48 110
e 48 120
e 48 121
e 48 127
e 48 128
e 48 151
e 48 155
e 48 171
e 48 173
e 48 177
e 48 191
e 49 50
e 49 51
e 49 55
e 49 57
e 49 65
e 49 68
e 49 71
e 49 72
e 49 75
e 49 78
e 49 87
e 49 94
e 49 97
e 49 110
e 49 118
e 49 123
e 49 132
e 49 138
e 49 142
e 49 148
e 49 153
e 49 157
e 49 161
e 49 164
e 49 166
e 49 168
e 49 170
e 49 171
e 49 185
e 49 188
e 49 189
e 49 202
e 50 52
e 50 53
e 50 59
e 50 64
e 50 67
e 50 68
e 50 70
e 50 80
e 50 83
e 50 95
e 50 101
e 50 104
e 50 113
e 50 116
e 50 127
e 50 132
e 50 133
e 50 139
e 50 141
e 50 148
e 50 151
e 50 167
e 50 184
e 50 189
e 51 53
e 51 55
e 51 68
e 51 69
e 51 70
e 51 76
e 51 79
e 51 80
e 51 83
e 51 97
e 51 116
e 51 125
e 51 140
e 51 143
e 51 149
e 51 154
e 51 160
e 51 166
e 51 174
e 51 177
e 51 190
e 52 53
e 52 57
e 52 60
e 52 62
e 52 66
e 52 72
e 52 73
e 52 77
e 52 78
e 52 94
e 52 110
e 52 117
e 52 125
e 52 143
e 52 150
e 52 163
e 52 177
e 52 185
e 52 189
e 52 198
e 53 58
e 53 62
e 53 64
e 53 67
e 53 69
e 53 85
e 53 97
e 53 114
e 53 118
e 53 122
e 53 126
e 53 128
e 53 132
e 53 137
e 53 161
e 53 162
e 53 181
e 53 197
e 53 198
e 54 55
e 54 57
e 54 71
e 54 73
e 54 78
e 54 90
e 54 93
e 54 94
e 54 100
e 54 102
e 54 104
e 54 107
e 54 118
e 54 135
e 54 149
e 54 154
e 54 170
e 54 172
e 54 194
e 55 56
e 55 69
e 55 78
e 55 81
e 55 86
e 55 102
e 55 124
e 55 131
e 55 171
e 55 186
e 56 60
e 56 65
e 56 74
e 56 76
e 56 78
e 56 81
e 56 82
e 56 87
e 56 104
e 56 113
e 56 117
e 56 138
e 56 142
e 56 164
e 56 172
e 56 181
e 56 188
e 57 62
e 57 66
e 57 67
e 57 70
e 57 80
e 57 92
e 57 99
e 57 100
e 57 106
e 57 108
e 57 110
e 57 122
e 57 124
e 57 147
e 57 159
e 57 161
e 57 181
e 57 188
e 58 59
e 58 61
e 58 64
e 58 66
e 58 67
e 58 72
e 58 75
e 58 87
e 58 92
e 58 95
e 58 111
e 58 117
e 58 118
e 58 122
e 58 123
e 58 134
e 58 155
e 58 158
e 58 161
e 58 165
e 58 166
e 58 175
e 58 177
e 58 193
e 59 62
e 59 63
e 59 75
e 59 76
e 59 89
e 59 94
e 59 102
e 59 104
e 59 112
e 59 139
e 59 140
e 59 179
e 59 195
e 60 67
e 60 78
e 60 79
e 60 85
e 60 90
e 60 92
e 60 93
e 60 103
e 60 106
e 60 107
e 60 139
e 60 148
e 60 149
e 60 158
e 60 159
e 60 160
e 60 178
e 60 202
e 61 82
e 61 92
e 61 109
e 61 110
e 61 127
e 61 131
e 61 146
e 61 152
e 61 157
e 61 162
e 61 172
e 61 190
e 61 192
e 61 194
e 62 73
e 62 86
e 62 89
e 62 91
e 62 93
e 62 95
e 62 103
e 62 113
e 62 130
e 62 165
e 62 168
e 62 181
e 62 187
e 63 65
e 63 70
e 63 75
e 63 93
e 63 111
e 63 118
e 63 121
e 63 159
e 63 184
e 64 70
e 64 71
e 64 74
e 64 81
e 64 83
e 64 91
e 64 97
e 64 101
e 64 108
e 64 110
e 64 115
e 64 117
e 64 124
e 64 127
e 64 132
e 64 135
e 64 136
e 64 151
e 64 161
e 64 163
e 64 168
e 64 175
e 64 183
e 64 186
e 64 197
e 65 67
e 65 76
e 65 85
e 65 86
e 65 87
e 65 90
e 65 93
e 65 98
e 65 111
e 65 119
e 65 120
e 65 123
e 65 148
e 65 150
e 65 157
e 65 159
e 65 162
e 65 172
e 65 192
e 65 197
e 66 67
e 66 68
e 66 81
e 66 82
e 66 95
e 66 126
e 66 130
e 66 139
e 66 143
e 66 144
e 66 152
e 66 157
e 66 159
e 66 162
e 66 168
e 66 189
e 66 192
e 67 68
e 67 74
e 67 75
e 67 99
e 67 100
e 67 101
e 67 118
e 67 122
e 67 131
e 67 136
e 67 140
e 67 143
e 67 144
e 67 152
e 67 158
e 67 166
e 67 183
e 67 188
e 68 75
e 68 77
e 68 84
e 68 108
e 68 112
e 68 129
e 68 137
e 68 139
e 68 141
e 68 146
e 68 163
e 68 167
e 68 182
e 68 184
e 68 187
e 68 191
e 68 196
e 68 200
e 69 77
e 69 80
e 69 81
e 69 88
e 69 89
e 69 94
e 69 95
e 69 99
e 69 103
e 69 104
e 69 119
e 69 128
e 69 167
e 69 183
e 69 186
e 70 79
e 70 85
e 70 88
e 70 107
e 70 113
e 70 114
e 70 138
e 70 145
e 71 74
e 71 115
e 71 120
e 71 126
e 71 133
e 71 141
e 71 144
e 71 151
e 71 156
e 71 166
e 71 169
e 71 170
e 71 176
e 71 184
e 71 185
e 71 190
e 71 191
e 72 78
e 72 81
e 72 82
e 72 108
e 72 109
e 72 112
e 72 141
e 72 143
e 72 145
e 72 178
e 72 201
e 73 77
e 73 89
e 73 90
e 73 94
e 73 98
e 73 107
e 73 116
e 73 126
e 73 133
e 73 138
e 73 142
e 73 149
e 73 159
e 73 160
e 73 173
e 73 196
e 73 199
e 74 90
e 74 114
e 74 115
e 74 117
e 74 120
e 74 134
e 74 138
e 74 152
e 74 156
e 74 166
e 74 184
e 75 84
e 75 88
e 75 105
e 75 107
e 75 120
e 75 122
e 75 129
e 75 141
e 75 149
e 75 157
e 75 159
e 75 188
e 75 191
e 75 195
e 75 197
e 76 79
e 76 94
e 76 104
e 76 118
e 76 129
e 76 132
e 76 136
e 76 142
e 76 143
e 76 162
e 76 170
e 76 180
e 76 186
e 76 190
e 77 92
e 77 95
e 77 108
e 77 120
e 77 128
e 77 133
e 77 141
e 77 148
e 77 151
e 77 152
e 77 175
e 77 177
e 77 198
e 78 81
e 78 82
e 78 92
e 78 97
e 78 104
e 78 107
e 78 114
e 78 124
e 78 135
e 78 170
e 78 171
e 78 180
e 78 185
e 78 198
e 79 80
e 79 114
e 79 128
e 79 130
e 79 137
e 79 142
e 79 153
e 79 174
e 79 196
e 80 82
e 80 104
e 80 164
e 80 170
e 80 174
e 81 82
e 81 87
e 81 88
e 81 89
e 81 90
e 81 99
e 81 106
e 81 113
e 81 115
e 81 116
e 81 124
e 81 128
e 81 150
e 81 154
e 81 155
e 81 163
e 81 173
e 81 193
e 82 86
e 82 91
e 82 96
e 82 103
e 82 130
e 82 165
e 82 187
e 82 202
e 83 87
e 83 92
e 83 109
e 83 114
e 83 164
e 84 90
e 84 103
e 84 105
e 84 125
e 84 126
e 84 131
e 84 133
e 84 137
e 84 147
e 84 165
e 84 176
e 84 179
e 84 180
e 84 190
e 84 200
e 84 202
e 85 95
e 85 99
e 85 106
e 85 123
e 85 132
e 85 145
e 85 146
e 85 178
e 85 194
e 85 196
e 86 89
e 86 94
e 86 101
e 86 105
e 86 106
e 86 107
e 86 108
e 86 114
e 86 148
e 86 159
e 86 160
e 86 173
e 86 180
e 86 184
e 86 202
e 87 88
e 87 92
e 87 93
e 87 96
e 87 97
e 87 105
e 87 119
e 87 122
e 87 123
e 87 125
e 87 131
e 87 135
e 87 137
e 87 141
e 87 147
e 87 153
e 87 166
e 87 176
e 88 106
e 88 133
e 88 166
e 89 90
e 89 95
e 89 96
e 89 100
e 89 107
e 89 113
e 89 117
e 89 119
e 89 124
e 89 143
e 89 144
e 89 172
e 89 182
e 89 183
e 90 99
e 90 109
e 90 112
e 90 135
e 90 151
e 90 157
e 90 170
e 90 174
e 90 180
e 90 190
e 90 194
e 91 93
e 91 96
e 91 98
e 91 101
e 91 112
e 91 119
e 91 125
e 91 142
e 91 158
e 91 163
e 91 165
e 91 170
e 91 191
e 91 202
e 92 93
e 92 99
e 92 112
e 92 128
e 92 129
e 92 131
e 92 137
e 92 149
e 92 156
e 92 174
e 92 179
e 92 190
e 93 95
e 93 101
e 93 136
e 93 147
e 93 150
e 93 156
e 93 160
e 93 161
e 93 165
e 93 169
e 93 175
e 93 179
e 93 188
e 93 202
e 94 98
e 94 102
e 94 104
e 94 106
e 94 108
e 94 120
e 94 124
e 94 129
e 94 135
e 94 139
e 94 140
e 94 145
e 94 155
e 94 165
e 94 177
e 95 96
e 95 100
e 95 109
e 95 130
e 95 131
e 95 136
e 95 143
e 95 178
e 95 189
e 95 192
e 96 128
e 96 139
e 96 176
e 97 110
e 97 114
e 97 120
e 97 121
e 97 146
e 97 160
e 97 169
e 97 176
e 97 182
e 98 103
e 98 109
e 98 110
e 98 122
e 98 126
e 98 130
e 98 136
e 98 142
e 98 147
e 98 159
e 98 160
e 98 201
e 99 121
e 99 138
e 99 145
e 99 153
e 99 167
e 99 169
e 99 171
e 99 175
e 99 180
e 99 190
e 100 106
e 100 117
e 100 118
e 100 119
e 100 121
e 100 122
e 100 125
e 100 126
e 100 127
e 100 131
e 100 135
e 100 145
e 100 153
e 100 183
e 100 201
e 101 103
e 101 105
e 101 138
e 101 140
e 101 157
e 101 161
e 101 163
e 101 172
e 101 180
e 101 199
e 101 202
e 102 109
e 102 115
e 102 119
e 102 139
e 102 143
e 102 155
e 102 200
e 103 120
e 103 169
e 103 173
e 103 179
e 103 183
e 103 196
e 104 126
e 104 160
e 104 180
e 104 197
e 104 200
e 105 108
e 105 110
e 105 123
e 105 127
e 105 129
e 105 134
e 105 137
e 105 140
e 105 146
e 105 158
e 105 162
e 105 164
e 105 171
e 105 176
e 105 177
e 105 181
e 105 185
e 105 201
e 106 117
e 106 121
e 106 139
e 106 157
e 106 172
e 106 190
e 106 198
e 107 123
e 107 126
e 107 165
e 108 117
e 108 123
e 108 134
e 108 137
e 108 172
e 108 173
e 109 112
e 109 126
e 109 132
e 109 145
e 109 153
e 109 186
e 110 126
e 110 136
e 110 143
e 110 146
e 110 152
e 110 192
e 111 126
e 111 135
e 111 141
e 111 163
e 111 193
e 112 114
e 112 118
e 112 121
e 112 137
e 112 140
e 112 155
e 112 158
e 112 174
e 112 176
e 112 178
e 112 189
e 112 191
e 112 194
e 113 132
e 113 135
e 113 157
e 113 164
e 113 179
e 113 185
e 113 201
e 114 120
e 114 127
e 114 136
e 114 140
e 114 168
e 114 183
e 115 121
e 115 141
e 115 142
e 115 151
e 115 154
e 115 158
e 115 174
e 115 189
e 116 127
e 116 148
e 116 176
e 116 182
e 116 187
e 116 196
e 116 202
e 117 126
e 117 167
e 117 176
e 117 191
e 118 134
e 118 149
e 118 181
e 118 198
e 119 128
e 119 140
e 119 150
e 119 161
e 119 166
e 119 173
e 119 184
e 119 185
e 119 187
e 119 199
e 120 146
e 120 167
e 120 177
e 120 182
e 120 186
e 121 122
e 121 133
e 121 144
e 121 171
e 121 178
e 121 185
e 121 201
e 121 202
e 122 144
e 123 140
e 123 181
e 124 129
e 124 144
e 124 145
e 124 150
e 124 156
e 124 200
e 125 144
e 125 154
e 125 166
e 125 167
e 125 181
e 125 184
e 126 127
e 126 142
e 126 143
e 126 146
e 126 152
e 126 177
e 126 195
e 127 130
e 127 136
e 127 146
e 127 151
e 127 153
e 127 173
e 127 175
e 127 185
e 128 156
e 128 167
e 128 168
e 128 200
e 129 130
e 129 132
e 129 141
e 129 155
e 129 168
e 129 176
e 129 177
e 130 175
e 131 164
e 131 167
e 131 170
e 131 188
e 132 137
e 132 172
e 132 177
e 132 199
e 133 138
e 133 145
e 133 149
e 133 165
e 133 170
e 133 195
e 134 153
e 134 185
e 135 184
e 135 189
e 135 198
e 135 199
e 136 145
e 136 151
e 136 173
e 136 179
e 136 194
e 137 190
e 138 147
e 138 169
e 138 195
e 139 155
e 139 162
e 139 199
e 140 151
e 140 184
e 140 197
e 141 147
e 141 185
e 142 150
e 142 168
e 142 172
e 142 195
e 143 163
e 143 183
e 143 184
e 143 191
e 143 200
e 144 145
e 144 163
e 144 171
e 146 159
e 146 166
e 146 170
e 146 191
e 147 148
e 147 151
e 147 152
e 147 157
e 147 171
e 147 197
e 148 188
e 148 197
e 149 192
e 149 197
e 151 157
e 151 191
e 151 193
e 151 196
e 151 197
e 151 200
e 152 170
e 152 195
e 153 184
e 154 181
e 154 189
e 156 162
e 156 168
e 156 169
e 156 176
e 157 163
e 157 179
e 157 183
e 158 163
e 158 169
e 158 170
e 158 193
e 159 180
e 159 185
e 159 193
e 159 196
e 159 199
e 160 168
e 160 169
e 160 175
e 160 187
e 161 200
e 162 165
e 162 176
e 162 180
e 162 188
e 163 192
e 164 174
e 164 181
e 164 192
e 165 199
e 166 186
e 166 193
e 167 170
e 168 177
e 168 183
e 169 186
e 170 178
e 170 200
e 172 184
e 173 182
e 173 198
e 175 179
e 175 194
e 176 177
e 177 201
e 178 192
e 178 195
e 179 198
e 180 181
e 180 194
e 183 200
e 183 201
e 184 196
e 184 197
e 188 189
e 189 195
e 192 201
e 193 201
